Li42
1.0
   8.4337709400000040    0.0000000000000000   -0.0000000000000014
  -0.0000000000000161   16.9797222553625105    0.0000000000000010
   0.0000000000000000    0.0000000000000000   26.1124489977525016
Li
42
direct
  -0.5833333333333331   -0.0000000000000000    0.7378079366033965 Li+
  -0.1547619047619046    0.1428571428571428    0.7378079366033965 Li+
  -0.2976190476190474    0.4285714285714285    0.7378079366033964 Li+
   0.2738095238095239    0.2857142857142856    0.7378079366033964 Li+
  -0.4404761904761904    0.7142857142857141    0.7378079366033964 Li+
   0.1309523809523810    0.5714285714285712    0.7378079366033964 Li+
  -0.0119047619047617    0.8571428571428570    0.7378079366033964 Li+
   0.0833333333333333   -0.0000000000000000    0.7758298006002518 Li+
   0.5119047619047616    0.1428571428571428    0.7758298006002516 Li+
   0.3690476190476188    0.4285714285714285    0.7758298006002518 Li+
  -0.0595238095238098    0.2857142857142856    0.7758298006002516 Li+
   0.2261904761904759    0.7142857142857141    0.7758298006002516 Li+
  -0.2023809523809527    0.5714285714285713    0.7758298006002516 Li+
  -0.3452380952380956    0.8571428571428570    0.7758298006002516 Li+
  -0.9166666666666665   -0.0000000000000000    0.6617642086096859 Li+
  -0.4880952380952381    0.1428571428571428    0.6617642086096858 Li+
  -0.6309523809523809    0.4285714285714285    0.6617642086096858 Li+
  -0.0595238095238093    0.2857142857142856    0.6617642086096858 Li+
  -0.7738095238095239    0.7142857142857140    0.6617642086096858 Li+
  -0.2023809523809525    0.5714285714285712    0.6617642086096858 Li+
  -0.3452380952380951    0.8571428571428570    0.6617642086096858 Li+
  -0.2500000000000001    0.0000000000000000    0.6997860726065411 Li+
   0.1785714285714284    0.1428571428571427    0.6997860726065411 Li+
   0.0357142857142856    0.4285714285714284    0.6997860726065411 Li+
  -0.3928571428571428    0.2857142857142856    0.6997860726065411 Li+
  -0.1071428571428573    0.7142857142857141    0.6997860726065410 Li+
  -0.5357142857142857    0.5714285714285713    0.6997860726065411 Li+
  -0.6785714285714288    0.8571428571428570    0.6997860726065411 Li+
  -1.2499999999999998   -0.0000000000000000    0.5857204806159754 Li+
  -0.8214285714285714    0.1428571428571428    0.5857204806159753 Li+
  -0.9642857142857142    0.4285714285714284    0.5857204806159753 Li+
  -0.3928571428571427    0.2857142857142856    0.5857204806159753 Li+
  -1.1071428571428570    0.7142857142857140    0.5857204806159753 Li+
  -0.5357142857142857    0.5714285714285712    0.5857204806159753 Li+
  -0.6785714285714284    0.8571428571428570    0.5857204806159753 Li+
  -0.5833333333333336   -0.0000000000000000    0.6237423446128305 Li+
  -0.1547619047619050    0.1428571428571427    0.6237423446128305 Li+
  -0.2976190476190477    0.4285714285714284    0.6237423446128306 Li+
  -0.7261904761904761    0.2857142857142856    0.6237423446128305 Li+
  -0.4404761904761906    0.7142857142857141    0.6237423446128305 Li+
  -0.8690476190476193    0.5714285714285713    0.6237423446128305 Li+
  -1.0119047619047619    0.8571428571428570    0.6237423446128305 Li+
