Li27 Co27 O54
1.0
   8.4337709400000040    0.0000000000000000   -0.0000000000000014
  -0.0000000000000161   16.9797222553625105    0.0000000000000010
   0.0000000000000000    0.0000000000000000   26.1124489977525016
Li Co O
27 27 54
direct
   0.5833333333333331    0.2099795587716858    0.3533214589398839 Li+
   0.5833333333333330    0.5433128921050192    0.3533214589398839 Li+
   0.5833333333333333    0.8766462254383525    0.3533214589398839 Li+
   0.2499999999999999    0.2099795587716858    0.3533214589398839 Li+
   0.2499999999999998    0.5433128921050191    0.3533214589398839 Li+
   0.2499999999999998    0.8766462254383525    0.3533214589398839 Li+
   0.9166666666666664    0.2099795587716858    0.3533214589398839 Li+
   0.9166666666666663    0.5433128921050192    0.3533214589398839 Li+
   0.9166666666666664    0.8766462254383526    0.3533214589398840 Li+
   0.7499999999999996    0.1277437090639210    0.4296985564301780 Li+
   0.7499999999999996    0.4610770423972543    0.4296985564301780 Li+
   0.7499999999999998    0.7944103757305876    0.4296985564301780 Li+
   0.4166666666666663    0.1277437090639209    0.4296985564301780 Li+
   0.4166666666666662    0.4610770423972543    0.4296985564301780 Li+
   0.4166666666666663    0.7944103757305876    0.4296985564301780 Li+
   0.0833333333333330    0.1277437090639209    0.4296985564301780 Li+
   0.0833333333333330    0.4610770423972543    0.4296985564301780 Li+
   0.0833333333333329    0.7944103757305876    0.4296985564301780 Li+
   0.5833333333333326    0.0455078593561561    0.5060756539204720 Li+
   0.5833333333333326    0.3788411926894893    0.5060756539204720 Li+
   0.5833333333333328    0.7121745260228226    0.5060756539204720 Li+
   0.2499999999999994    0.0455078593561560    0.5060756539204720 Li+
   0.2499999999999994    0.3788411926894893    0.5060756539204720 Li+
   0.2499999999999995    0.7121745260228226    0.5060756539204720 Li+
   0.9166666666666661    0.0455078593561561    0.5060756539204720 Li+
   0.9166666666666661    0.3788411926894893    0.5060756539204720 Li+
   0.9166666666666661    0.7121745260228225    0.5060756539204720 Li+
   0.5833333333333333    0.0433128921050192    0.3533214589398839 Co3+
   0.5833333333333333    0.3766462254383525    0.3533214589398839 Co3+
   0.5833333333333333    0.7099795587716858    0.3533214589398840 Co3+
   0.2499999999999998    0.0433128921050192    0.3533214589398839 Co3+
   0.2499999999999999    0.3766462254383525    0.3533214589398839 Co3+
   0.2499999999999998    0.7099795587716859    0.3533214589398839 Co3+
   0.9166666666666664    0.0433128921050192    0.3533214589398839 Co3+
   0.9166666666666665    0.3766462254383525    0.3533214589398839 Co3+
   0.9166666666666665    0.7099795587716857    0.3533214589398839 Co3+
   0.4166666666666664    0.2944103757305876    0.4296985564301780 Co3+
   0.4166666666666664    0.6277437090639210    0.4296985564301781 Co3+
   0.4166666666666664    0.9610770423972541    0.4296985564301780 Co3+
   0.0833333333333331    0.2944103757305875    0.4296985564301780 Co3+
   0.0833333333333331    0.6277437090639209    0.4296985564301780 Co3+
   0.0833333333333331   -0.0389229576027458    0.4296985564301780 Co3+
   0.7499999999999997    0.2944103757305875    0.4296985564301780 Co3+
   0.7499999999999999    0.6277437090639209    0.4296985564301780 Co3+
   0.7499999999999997   -0.0389229576027458    0.4296985564301780 Co3+
   0.5833333333333329    0.2121745260228227    0.5060756539204720 Co3+
   0.5833333333333328    0.5455078593561560    0.5060756539204722 Co3+
   0.5833333333333328    0.8788411926894896    0.5060756539204723 Co3+
   0.2499999999999995    0.2121745260228227    0.5060756539204720 Co3+
   0.2499999999999995    0.5455078593561560    0.5060756539204722 Co3+
   0.2499999999999994    0.8788411926894891    0.5060756539204720 Co3+
   0.9166666666666662    0.2121745260228227    0.5060756539204720 Co3+
   0.9166666666666663    0.5455078593561561    0.5060756539204722 Co3+
   0.9166666666666662    0.8788411926894893    0.5060756539204722 Co3+
   0.4166666666666665    0.1199402226115510    0.3502684524973239 O2-
   0.4166666666666667    0.4532735559448844    0.3502684524973239 O2-
   0.4166666666666665    0.7866068892782176    0.3502684524973239 O2-
   0.0833333333333332    0.1199402226115511    0.3502684524973239 O2-
   0.0833333333333332    0.4532735559448844    0.3502684524973239 O2-
   0.0833333333333332    0.7866068892782176    0.3502684524973239 O2-
   0.7499999999999999    0.1199402226115510    0.3502684524973239 O2-
   0.7499999999999999    0.4532735559448843    0.3502684524973239 O2-
   0.7499999999999997    0.7866068892782176    0.3502684524973239 O2-
   0.4166666666666668    0.3000188949318205    0.3563744653824440 O2-
   0.4166666666666666    0.6333522282651538    0.3563744653824440 O2-
   0.4166666666666667    0.9666855615984872    0.3563744653824440 O2-
   0.0833333333333334    0.3000188949318205    0.3563744653824440 O2-
   0.0833333333333334    0.6333522282651538    0.3563744653824441 O2-
   0.0833333333333335    0.9666855615984872    0.3563744653824441 O2-
   0.7500000000000001    0.3000188949318205    0.3563744653824440 O2-
   0.7500000000000001    0.6333522282651540    0.3563744653824441 O2-
   0.7500000000000001    0.9666855615984873    0.3563744653824441 O2-
   0.5833333333333331    0.0377043729037862    0.4266455499876180 O2-
   0.5833333333333330    0.3710377062371195    0.4266455499876180 O2-
   0.5833333333333330    0.7043710395704528    0.4266455499876181 O2-
   0.2499999999999998    0.0377043729037861    0.4266455499876180 O2-
   0.2499999999999998    0.3710377062371193    0.4266455499876180 O2-
   0.2499999999999998    0.7043710395704528    0.4266455499876181 O2-
   0.9166666666666665    0.0377043729037861    0.4266455499876180 O2-
   0.9166666666666664    0.3710377062371194    0.4266455499876180 O2-
   0.9166666666666664    0.7043710395704528    0.4266455499876181 O2-
   0.5833333333333335    0.2177830452240556    0.4327515628727381 O2-
   0.5833333333333333    0.5511163785573888    0.4327515628727382 O2-
   0.5833333333333333    0.8844497118907222    0.4327515628727381 O2-
   0.2500000000000001    0.2177830452240556    0.4327515628727381 O2-
   0.2500000000000000    0.5511163785573889    0.4327515628727382 O2-
   0.2500000000000001    0.8844497118907222    0.4327515628727381 O2-
   0.9166666666666665    0.2177830452240556    0.4327515628727381 O2-
   0.9166666666666665    0.5511163785573889    0.4327515628727381 O2-
   0.9166666666666667    0.8844497118907222    0.4327515628727381 O2-
   0.7499999999999997   -0.0445314768039788    0.5030226474779123 O2-
   0.7499999999999994    0.2888018565293545    0.5030226474779121 O2-
   0.7499999999999996    0.6221351898626879    0.5030226474779121 O2-
   0.4166666666666662   -0.0445314768039788    0.5030226474779121 O2-
   0.4166666666666662    0.2888018565293544    0.5030226474779121 O2-
   0.4166666666666662    0.6221351898626877    0.5030226474779121 O2-
   1.0833333333333328   -0.0445314768039789    0.5030226474779121 O2-
   1.0833333333333328    0.2888018565293545    0.5030226474779121 O2-
   1.0833333333333330    0.6221351898626877    0.5030226474779120 O2-
   0.7499999999999999    0.1355471955162908    0.5091286603630322 O2-
   0.7499999999999998    0.4688805288496239    0.5091286603630322 O2-
   0.7500000000000000    0.8022138621829573    0.5091286603630322 O2-
   0.4166666666666664    0.1355471955162907    0.5091286603630322 O2-
   0.4166666666666664    0.4688805288496240    0.5091286603630322 O2-
   0.4166666666666665    0.8022138621829572    0.5091286603630322 O2-
   1.0833333333333333    0.1355471955162907    0.5091286603630323 O2-
   1.0833333333333333    0.4688805288496241    0.5091286603630322 O2-
   1.0833333333333333    0.8022138621829573    0.5091286603630322 O2-
