Li69 Co27 O54
1.0
   8.4337709400000040    0.0000000000000000   -0.0000000000000014
  -0.0000000000000161   16.9797222553625105    0.0000000000000010
   0.0000000000000000    0.0000000000000000   26.1124489977525016
Li Co O
69 27 54
direct
   0.5833333333333331    0.2099795587716858    0.3533214589398839 Li+
   0.5833333333333330    0.5433128921050192    0.3533214589398839 Li+
   0.5833333333333333    0.8766462254383525    0.3533214589398839 Li+
   0.2499999999999999    0.2099795587716858    0.3533214589398839 Li+
   0.2499999999999998    0.5433128921050191    0.3533214589398839 Li+
   0.2499999999999998    0.8766462254383525    0.3533214589398839 Li+
   0.9166666666666664    0.2099795587716858    0.3533214589398839 Li+
   0.9166666666666663    0.5433128921050192    0.3533214589398839 Li+
   0.9166666666666664    0.8766462254383526    0.3533214589398840 Li+
   0.7499999999999996    0.1277437090639210    0.4296985564301780 Li+
   0.7499999999999996    0.4610770423972543    0.4296985564301780 Li+
   0.7499999999999998    0.7944103757305876    0.4296985564301780 Li+
   0.4166666666666663    0.1277437090639209    0.4296985564301780 Li+
   0.4166666666666662    0.4610770423972543    0.4296985564301780 Li+
   0.4166666666666663    0.7944103757305876    0.4296985564301780 Li+
   0.0833333333333330    0.1277437090639209    0.4296985564301780 Li+
   0.0833333333333330    0.4610770423972543    0.4296985564301780 Li+
   0.0833333333333329    0.7944103757305876    0.4296985564301780 Li+
   0.5833333333333326    0.0455078593561561    0.5060756539204720 Li+
   0.5833333333333326    0.3788411926894893    0.5060756539204720 Li+
   0.5833333333333328    0.7121745260228226    0.5060756539204720 Li+
   0.2499999999999994    0.0455078593561560    0.5060756539204720 Li+
   0.2499999999999994    0.3788411926894893    0.5060756539204720 Li+
   0.2499999999999995    0.7121745260228226    0.5060756539204720 Li+
   0.9166666666666661    0.0455078593561561    0.5060756539204720 Li+
   0.9166666666666661    0.3788411926894893    0.5060756539204720 Li+
   0.9166666666666661    0.7121745260228225    0.5060756539204720 Li+
  -0.5833333333333331   -0.0000000000000000    0.7378079366033965 Li+
  -0.1547619047619046    0.1428571428571428    0.7378079366033965 Li+
  -0.2976190476190474    0.4285714285714285    0.7378079366033964 Li+
   0.2738095238095239    0.2857142857142856    0.7378079366033964 Li+
  -0.4404761904761904    0.7142857142857141    0.7378079366033964 Li+
   0.1309523809523810    0.5714285714285712    0.7378079366033964 Li+
  -0.0119047619047617    0.8571428571428570    0.7378079366033964 Li+
   0.0833333333333333   -0.0000000000000000    0.7758298006002518 Li+
   0.5119047619047616    0.1428571428571428    0.7758298006002516 Li+
   0.3690476190476188    0.4285714285714285    0.7758298006002518 Li+
  -0.0595238095238098    0.2857142857142856    0.7758298006002516 Li+
   0.2261904761904759    0.7142857142857141    0.7758298006002516 Li+
  -0.2023809523809527    0.5714285714285713    0.7758298006002516 Li+
  -0.3452380952380956    0.8571428571428570    0.7758298006002516 Li+
  -0.9166666666666665   -0.0000000000000000    0.6617642086096859 Li+
  -0.4880952380952381    0.1428571428571428    0.6617642086096858 Li+
  -0.6309523809523809    0.4285714285714285    0.6617642086096858 Li+
  -0.0595238095238093    0.2857142857142856    0.6617642086096858 Li+
  -0.7738095238095239    0.7142857142857140    0.6617642086096858 Li+
  -0.2023809523809525    0.5714285714285712    0.6617642086096858 Li+
  -0.3452380952380951    0.8571428571428570    0.6617642086096858 Li+
  -0.2500000000000001    0.0000000000000000    0.6997860726065411 Li+
   0.1785714285714284    0.1428571428571427    0.6997860726065411 Li+
   0.0357142857142856    0.4285714285714284    0.6997860726065411 Li+
  -0.3928571428571428    0.2857142857142856    0.6997860726065411 Li+
  -0.1071428571428573    0.7142857142857141    0.6997860726065410 Li+
  -0.5357142857142857    0.5714285714285713    0.6997860726065411 Li+
  -0.6785714285714288    0.8571428571428570    0.6997860726065411 Li+
  -1.2499999999999998   -0.0000000000000000    0.5857204806159754 Li+
  -0.8214285714285714    0.1428571428571428    0.5857204806159753 Li+
  -0.9642857142857142    0.4285714285714284    0.5857204806159753 Li+
  -0.3928571428571427    0.2857142857142856    0.5857204806159753 Li+
  -1.1071428571428570    0.7142857142857140    0.5857204806159753 Li+
  -0.5357142857142857    0.5714285714285712    0.5857204806159753 Li+
  -0.6785714285714284    0.8571428571428570    0.5857204806159753 Li+
  -0.5833333333333336   -0.0000000000000000    0.6237423446128305 Li+
  -0.1547619047619050    0.1428571428571427    0.6237423446128305 Li+
  -0.2976190476190477    0.4285714285714284    0.6237423446128306 Li+
  -0.7261904761904761    0.2857142857142856    0.6237423446128305 Li+
  -0.4404761904761906    0.7142857142857141    0.6237423446128305 Li+
  -0.8690476190476193    0.5714285714285713    0.6237423446128305 Li+
  -1.0119047619047619    0.8571428571428570    0.6237423446128305 Li+
   0.5833333333333333    0.0433128921050192    0.3533214589398839 Co3+
   0.5833333333333333    0.3766462254383525    0.3533214589398839 Co3+
   0.5833333333333333    0.7099795587716858    0.3533214589398840 Co3+
   0.2499999999999998    0.0433128921050192    0.3533214589398839 Co3+
   0.2499999999999999    0.3766462254383525    0.3533214589398839 Co3+
   0.2499999999999998    0.7099795587716859    0.3533214589398839 Co3+
   0.9166666666666664    0.0433128921050192    0.3533214589398839 Co3+
   0.9166666666666665    0.3766462254383525    0.3533214589398839 Co3+
   0.9166666666666665    0.7099795587716857    0.3533214589398839 Co3+
   0.4166666666666664    0.2944103757305876    0.4296985564301780 Co3+
   0.4166666666666664    0.6277437090639210    0.4296985564301781 Co3+
   0.4166666666666664    0.9610770423972541    0.4296985564301780 Co3+
   0.0833333333333331    0.2944103757305875    0.4296985564301780 Co3+
   0.0833333333333331    0.6277437090639209    0.4296985564301780 Co3+
   0.0833333333333331   -0.0389229576027458    0.4296985564301780 Co3+
   0.7499999999999997    0.2944103757305875    0.4296985564301780 Co3+
   0.7499999999999999    0.6277437090639209    0.4296985564301780 Co3+
   0.7499999999999997   -0.0389229576027458    0.4296985564301780 Co3+
   0.5833333333333329    0.2121745260228227    0.5060756539204720 Co3+
   0.5833333333333328    0.5455078593561560    0.5060756539204722 Co3+
   0.5833333333333328    0.8788411926894896    0.5060756539204723 Co3+
   0.2499999999999995    0.2121745260228227    0.5060756539204720 Co3+
   0.2499999999999995    0.5455078593561560    0.5060756539204722 Co3+
   0.2499999999999994    0.8788411926894891    0.5060756539204720 Co3+
   0.9166666666666662    0.2121745260228227    0.5060756539204720 Co3+
   0.9166666666666663    0.5455078593561561    0.5060756539204722 Co3+
   0.9166666666666662    0.8788411926894893    0.5060756539204722 Co3+
   0.4166666666666665    0.1199402226115510    0.3502684524973239 O2-
   0.4166666666666667    0.4532735559448844    0.3502684524973239 O2-
   0.4166666666666665    0.7866068892782176    0.3502684524973239 O2-
   0.0833333333333332    0.1199402226115511    0.3502684524973239 O2-
   0.0833333333333332    0.4532735559448844    0.3502684524973239 O2-
   0.0833333333333332    0.7866068892782176    0.3502684524973239 O2-
   0.7499999999999999    0.1199402226115510    0.3502684524973239 O2-
   0.7499999999999999    0.4532735559448843    0.3502684524973239 O2-
   0.7499999999999997    0.7866068892782176    0.3502684524973239 O2-
   0.4166666666666668    0.3000188949318205    0.3563744653824440 O2-
   0.4166666666666666    0.6333522282651538    0.3563744653824440 O2-
   0.4166666666666667    0.9666855615984872    0.3563744653824440 O2-
   0.0833333333333334    0.3000188949318205    0.3563744653824440 O2-
   0.0833333333333334    0.6333522282651538    0.3563744653824441 O2-
   0.0833333333333335    0.9666855615984872    0.3563744653824441 O2-
   0.7500000000000001    0.3000188949318205    0.3563744653824440 O2-
   0.7500000000000001    0.6333522282651540    0.3563744653824441 O2-
   0.7500000000000001    0.9666855615984873    0.3563744653824441 O2-
   0.5833333333333331    0.0377043729037862    0.4266455499876180 O2-
   0.5833333333333330    0.3710377062371195    0.4266455499876180 O2-
   0.5833333333333330    0.7043710395704528    0.4266455499876181 O2-
   0.2499999999999998    0.0377043729037861    0.4266455499876180 O2-
   0.2499999999999998    0.3710377062371193    0.4266455499876180 O2-
   0.2499999999999998    0.7043710395704528    0.4266455499876181 O2-
   0.9166666666666665    0.0377043729037861    0.4266455499876180 O2-
   0.9166666666666664    0.3710377062371194    0.4266455499876180 O2-
   0.9166666666666664    0.7043710395704528    0.4266455499876181 O2-
   0.5833333333333335    0.2177830452240556    0.4327515628727381 O2-
   0.5833333333333333    0.5511163785573888    0.4327515628727382 O2-
   0.5833333333333333    0.8844497118907222    0.4327515628727381 O2-
   0.2500000000000001    0.2177830452240556    0.4327515628727381 O2-
   0.2500000000000000    0.5511163785573889    0.4327515628727382 O2-
   0.2500000000000001    0.8844497118907222    0.4327515628727381 O2-
   0.9166666666666665    0.2177830452240556    0.4327515628727381 O2-
   0.9166666666666665    0.5511163785573889    0.4327515628727381 O2-
   0.9166666666666667    0.8844497118907222    0.4327515628727381 O2-
   0.7499999999999997   -0.0445314768039788    0.5030226474779123 O2-
   0.7499999999999994    0.2888018565293545    0.5030226474779121 O2-
   0.7499999999999996    0.6221351898626879    0.5030226474779121 O2-
   0.4166666666666662   -0.0445314768039788    0.5030226474779121 O2-
   0.4166666666666662    0.2888018565293544    0.5030226474779121 O2-
   0.4166666666666662    0.6221351898626877    0.5030226474779121 O2-
   1.0833333333333328   -0.0445314768039789    0.5030226474779121 O2-
   1.0833333333333328    0.2888018565293545    0.5030226474779121 O2-
   1.0833333333333330    0.6221351898626877    0.5030226474779120 O2-
   0.7499999999999999    0.1355471955162908    0.5091286603630322 O2-
   0.7499999999999998    0.4688805288496239    0.5091286603630322 O2-
   0.7500000000000000    0.8022138621829573    0.5091286603630322 O2-
   0.4166666666666664    0.1355471955162907    0.5091286603630322 O2-
   0.4166666666666664    0.4688805288496240    0.5091286603630322 O2-
   0.4166666666666665    0.8022138621829572    0.5091286603630322 O2-
   1.0833333333333333    0.1355471955162907    0.5091286603630323 O2-
   1.0833333333333333    0.4688805288496241    0.5091286603630322 O2-
   1.0833333333333333    0.8022138621829573    0.5091286603630322 O2-
