Li24
1.0
   5.6225139600000027    0.0000000000000000    0.0000000000000003
   2.8112569800000213   16.9797222553625069    0.0000000000000011
   0.0000000000000000    0.0000000000000000   23.5801902316799925
Li
24
direct
   0.3958333333333330    0.7291666666666664    0.7198265520319278 Li+
   0.8124999999999997    0.8124999999999999    0.7198265520319278 Li+
   0.5624999999999999    0.5625000000000000    0.7198265520319278 Li+
   0.9791666666666665    0.6458333333333334    0.7198265520319277 Li+
   0.3124999999999999    0.3124999999999999    0.7198265520319277 Li+
   0.7291666666666664    0.3958333333333333    0.7198265520319277 Li+
   0.1458333333333333    0.4791666666666666    0.7198265520319278 Li+
   0.4791666666666665    0.1458333333333333    0.7198265520319277 Li+
   0.8958333333333333    0.2291666666666667    0.7198265520319277 Li+
   0.2291666666666666    0.8958333333333334    0.7198265520319277 Li+
   0.6458333333333331    0.9791666666666666    0.7198265520319278 Li+
   0.0624999999999998    0.0625000000000000    0.7198265520319277 Li+
   0.5208333333333331    0.8541666666666665    0.6166907786509744 Li+
   0.9374999999999999    0.9375000000000000    0.6166907786509743 Li+
   0.6875000000000000    0.6875000000000002    0.6166907786509743 Li+
   0.1041666666666665    0.7708333333333331    0.6166907786509743 Li+
   0.4374999999999999    0.4374999999999999    0.6166907786509743 Li+
   0.8541666666666665    0.5208333333333334    0.6166907786509744 Li+
   0.2708333333333334    0.6041666666666667    0.6166907786509744 Li+
   0.6041666666666665    0.2708333333333333    0.6166907786509744 Li+
   0.0208333333333335    0.3541666666666667    0.6166907786509744 Li+
   0.3541666666666665    0.0208333333333333    0.6166907786509743 Li+
   0.7708333333333333    0.1041666666666666    0.6166907786509743 Li+
   0.1874999999999999    0.1875000000000001    0.6166907786509743 Li+
