Li18 Co18 O36
1.0
   5.6225139600000027    0.0000000000000000    0.0000000000000003
   2.8112569800000213   16.9797222553625069    0.0000000000000011
   0.0000000000000000    0.0000000000000000   23.5801902316799925
Li Co O
18 18 36
direct
   0.0200102206141574    0.2099795587716858    0.3593346020883496 Li+
   0.5200102206141575    0.2099795587716858    0.3593346020883497 Li+
   0.3533435539474908    0.5433128921050192    0.3593346020883497 Li+
   0.1866768872808241    0.8766462254383524    0.3593346020883497 Li+
   0.8533435539474910    0.5433128921050192    0.3593346020883497 Li+
   0.6866768872808244    0.8766462254383525    0.3593346020883497 Li+
   0.8111281454680402    0.1277437090639208    0.4439137782195162 Li+
   0.3111281454680401    0.1277437090639209    0.4439137782195163 Li+
   0.1444614788013735    0.4610770423972542    0.4439137782195163 Li+
  -0.0222051878652931    0.7944103757305875    0.4439137782195162 Li+
   0.6444614788013736    0.4610770423972542    0.4439137782195163 Li+
   0.4777948121347070    0.7944103757305875    0.4439137782195162 Li+
   0.1022460703219230    0.0455078593561559    0.5284929543506829 Li+
   0.6022460703219229    0.0455078593561559    0.5284929543506829 Li+
   0.4355794036552562    0.3788411926894893    0.5284929543506829 Li+
   0.2689127369885896    0.7121745260228227    0.5284929543506829 Li+
  -0.0644205963447437    0.3788411926894893    0.5284929543506829 Li+
   0.7689127369885900    0.7121745260228227    0.5284929543506829 Li+
   0.1033435539474906    0.0433128921050191    0.3593346020883497 Co3+
   0.6033435539474906    0.0433128921050191    0.3593346020883497 Co3+
   0.4366768872808241    0.3766462254383525    0.3593346020883496 Co3+
   0.2700102206141574    0.7099795587716858    0.3593346020883497 Co3+
  -0.0633231127191760    0.3766462254383525    0.3593346020883497 Co3+
   0.7700102206141575    0.7099795587716859    0.3593346020883497 Co3+
   0.2277948121347067    0.2944103757305875    0.4439137782195162 Co3+
   0.7277948121347069    0.2944103757305875    0.4439137782195163 Co3+
   0.5611281454680404    0.6277437090639210    0.4439137782195162 Co3+
   0.3944614788013736   -0.0389229576027458    0.4439137782195162 Co3+
   0.0611281454680401    0.6277437090639209    0.4439137782195163 Co3+
  -0.1055385211986267   -0.0389229576027458    0.4439137782195162 Co3+
   0.0189127369885893    0.2121745260228226    0.5284929543506829 Co3+
   0.5189127369885895    0.2121745260228227    0.5284929543506829 Co3+
   0.3522460703219229    0.5455078593561560    0.5284929543506829 Co3+
   0.1855794036552563    0.8788411926894891    0.5284929543506828 Co3+
  -0.1477539296780773    0.5455078593561560    0.5284929543506829 Co3+
   0.6855794036552563    0.8788411926894893    0.5284929543506829 Co3+
   0.3150298886942248    0.1199402226115510    0.3559537355966937 O2-
   0.8150298886942248    0.1199402226115510    0.3559537355966937 O2-
   0.6483632220275581    0.4532735559448844    0.3559537355966938 O2-
   0.4816965553608916    0.7866068892782178    0.3559537355966937 O2-
   0.1483632220275582    0.4532735559448844    0.3559537355966938 O2-
  -0.0183034446391084    0.7866068892782178    0.3559537355966937 O2-
   0.2249905525340896    0.3000188949318205    0.3627154685800056 O2-
   0.7249905525340898    0.3000188949318205    0.3627154685800056 O2-
   0.5583238858674232    0.6333522282651538    0.3627154685800056 O2-
   0.3916572192007564    0.9666855615984873    0.3627154685800056 O2-
   0.0583238858674231    0.6333522282651539    0.3627154685800056 O2-
   0.8916572192007568    0.9666855615984873    0.3627154685800056 O2-
   0.1061478135481073    0.0377043729037860    0.4405329117278604 O2-
   0.6061478135481074    0.0377043729037861    0.4405329117278604 O2-
   0.4394811468814407    0.3710377062371194    0.4405329117278604 O2-
   0.2728144802147740    0.7043710395704529    0.4405329117278605 O2-
  -0.0605188531185591    0.3710377062371193    0.4405329117278604 O2-
   0.7728144802147742    0.7043710395704528    0.4405329117278604 O2-
   0.0161084773879722    0.2177830452240555    0.4472946447111723 O2-
   0.5161084773879724    0.2177830452240555    0.4472946447111723 O2-
   0.3494418107213056    0.5511163785573888    0.4472946447111723 O2-
   0.1827751440546389    0.8844497118907221    0.4472946447111723 O2-
   0.8494418107213058    0.5511163785573889    0.4472946447111723 O2-
   0.6827751440546390    0.8844497118907222    0.4472946447111723 O2-
  -0.1027342615980101   -0.0445314768039790    0.5251120878590271 O2-
   0.3972657384019901   -0.0445314768039789    0.5251120878590271 O2-
   0.2305990717353234    0.2888018565293544    0.5251120878590270 O2-
   0.0639324050686568    0.6221351898626879    0.5251120878590271 O2-
   0.7305990717353235    0.2888018565293544    0.5251120878590270 O2-
   0.5639324050686567    0.6221351898626877    0.5251120878590270 O2-
   0.8072264022418550    0.1355471955162906    0.5318738208423388 O2-
   0.3072264022418552    0.1355471955162906    0.5318738208423388 O2-
   0.1405597355751885    0.4688805288496239    0.5318738208423388 O2-
  -0.0261069310914782    0.8022138621829572    0.5318738208423387 O2-
   0.6405597355751886    0.4688805288496240    0.5318738208423388 O2-
   0.4738930689085218    0.8022138621829573    0.5318738208423387 O2-
